NAME 
ROWS
 N  OBJ
 L  R0      
 E  R1      
 E  R2      
 E  R3      
 E  R4      
 E  R5      
 E  R6      
 E  R7      
 E  R8      
 E  R9      
 E  R10     
 E  R11     
 E  R12     
 E  R13     
 E  R14     
 E  R15     
 E  R16     
 E  R17     
 E  R18     
 E  R19     
 E  R20     
COLUMNS
    MARKER    'MARKER'                 'INTORG'
    I0(9)     OBJ       128
    I0(9)     R0        -129
    I0(9)     R3        8
    I0(9)     R5        13
    I0(9)     R6        3
    I0(9)     R7        7
    I0(9)     R8        1
    I0(9)     R9        13
    I0(9)     R10       10
    I0(9)     R20       1
    I1(10)    OBJ       6
    I1(10)    R0        -159
    I1(10)    R1        19
    I1(10)    R3        14
    I1(10)    R4        19
    I1(10)    R6        14
    I1(10)    R7        1
    I1(10)    R8        3
    I1(10)    R9        10
    I1(10)    R10       15
    I1(10)    R20       1
    I2(6)     OBJ       -146
    I2(6)     R0        -196
    I2(6)     R1        6
    I2(6)     R3        13
    I2(6)     R6        7
    I2(6)     R8        7
    I2(6)     R20       1
    I3(8)     OBJ       -77
    I3(8)     R0        72
    I3(8)     R1        13
    I3(8)     R5        18
    I3(8)     R6        12
    I3(8)     R8        15
    I3(8)     R9        9
    I3(8)     R10       19
    I3(8)     R20       1
    I4(8)     OBJ       84
    I4(8)     R0        -8
    I4(8)     R1        7
    I4(8)     R5        19
    I4(8)     R6        5
    I4(8)     R7        1
    I4(8)     R8        10
    I4(8)     R9        6
    I4(8)     R20       1
    I5(6)     OBJ       -22
    I5(6)     R0        64
    I5(6)     R2        7
    I5(6)     R5        3
    I5(6)     R6        14
    I5(6)     R7        12
    I5(6)     R20       1
    I6(9)     OBJ       -17
    I6(9)     R0        -137
    I6(9)     R1        5
    I6(9)     R3        4
    I6(9)     R4        15
    I6(9)     R5        10
    I6(9)     R8        17
    I6(9)     R9        10
    I6(9)     R10       13
    I6(9)     R20       1
    I7(9)     OBJ       -186
    I7(9)     R0        91
    I7(9)     R1        12
    I7(9)     R2        6
    I7(9)     R4        14
    I7(9)     R7        5
    I7(9)     R8        16
    I7(9)     R9        19
    I7(9)     R10       14
    I7(9)     R20       1
    I8(8)     OBJ       -185
    I8(8)     R0        186
    I8(8)     R1        14
    I8(8)     R2        6
    I8(8)     R3        7
    I8(8)     R4        10
    I8(8)     R5        6
    I8(8)     R10       15
    I8(8)     R20       1
    I9(11)    OBJ       -109
    I9(11)    R0        -148
    I9(11)    R1        16
    I9(11)    R2        13
    I9(11)    R3        11
    I9(11)    R4        15
    I9(11)    R6        16
    I9(11)    R7        12
    I9(11)    R8        -1
    I9(11)    R9        16
    I9(11)    R10       10
    I9(11)    R20       1
    MARKER    'MARKER'                 'INTEND'
    C10(14)   OBJ       -8
    C10(14)   R0        1
    C10(14)   R1        11
    C10(14)   R2        15
    C10(14)   R4        9
    C10(14)   R5        9
    C10(14)   R7        17
    C10(14)   R9        13
    C10(14)   R11       16
    C10(14)   R12       13
    C10(14)   R13       19
    C10(14)   R14       16
    C10(14)   R15       19
    C10(14)   R17       5
    C10(14)   R18       8
    C11(16)   OBJ       1
    C11(16)   R0        7
    C11(16)   R1        9
    C11(16)   R2        -1
    C11(16)   R3        11
    C11(16)   R4        6
    C11(16)   R5        7
    C11(16)   R6        8
    C11(16)   R7        19
    C11(16)   R9        10
    C11(16)   R10       9
    C11(16)   R11       14
    C11(16)   R12       9
    C11(16)   R14       19
    C11(16)   R15       17
    C11(16)   R18       10
    C11(16)   R19       11
    C12(16)   OBJ       -9
    C12(16)   R0        -4
    C12(16)   R2        13
    C12(16)   R3        7
    C12(16)   R5        15
    C12(16)   R6        10
    C12(16)   R7        5
    C12(16)   R8        13
    C12(16)   R9        3
    C12(16)   R10       -1
    C12(16)   R11       8
    C12(16)   R12       7
    C12(16)   R13       -1
    C12(16)   R15       17
    C12(16)   R17       12
    C12(16)   R18       9
    C12(16)   R19       7
    C13(10)   OBJ       4
    C13(10)   R0        5
    C13(10)   R1        10
    C13(10)   R3        14
    C13(10)   R7        12
    C13(10)   R8        14
    C13(10)   R10       6
    C13(10)   R13       15
    C13(10)   R15       16
    C13(10)   R16       15
    C13(10)   R17       10
    C14(14)   OBJ       2
    C14(14)   R0        9
    C14(14)   R2        -1
    C14(14)   R3        9
    C14(14)   R4        7
    C14(14)   R5        16
    C14(14)   R6        -1
    C14(14)   R7        16
    C14(14)   R9        5
    C14(14)   R12       2
    C14(14)   R14       14
    C14(14)   R15       15
    C14(14)   R16       12
    C14(14)   R18       17
    C14(14)   R19       1
    C15(12)   OBJ       -3
    C15(12)   R0        -6
    C15(12)   R3        11
    C15(12)   R4        7
    C15(12)   R6        11
    C15(12)   R8        1
    C15(12)   R10       8
    C15(12)   R11       5
    C15(12)   R12       4
    C15(12)   R15       12
    C15(12)   R16       2
    C15(12)   R18       9
    C15(12)   R19       15
    C16(16)   OBJ       3
    C16(16)   R0        3
    C16(16)   R1        4
    C16(16)   R2        13
    C16(16)   R3        4
    C16(16)   R4        13
    C16(16)   R6        8
    C16(16)   R7        11
    C16(16)   R8        3
    C16(16)   R9        2
    C16(16)   R10       1
    C16(16)   R12       6
    C16(16)   R13       12
    C16(16)   R14       18
    C16(16)   R16       2
    C16(16)   R17       9
    C16(16)   R19       1
    C17(10)   OBJ       -10
    C17(10)   R0        -6
    C17(10)   R2        6
    C17(10)   R5        18
    C17(10)   R7        1
    C17(10)   R10       11
    C17(10)   R11       3
    C17(10)   R13       9
    C17(10)   R14       5
    C17(10)   R15       1
    C17(10)   R16       3
    C18(12)   R0        4
    C18(12)   R1        4
    C18(12)   R2        6
    C18(12)   R3        9
    C18(12)   R4        -1
    C18(12)   R8        11
    C18(12)   R9        1
    C18(12)   R11       15
    C18(12)   R14       -1
    C18(12)   R15       13
    C18(12)   R18       5
    C18(12)   R19       2
    C19(16)   OBJ       -9
    C19(16)   R0        -5
    C19(16)   R1        1
    C19(16)   R4        6
    C19(16)   R6        16
    C19(16)   R8        17
    C19(16)   R9        10
    C19(16)   R10       13
    C19(16)   R11       9
    C19(16)   R12       19
    C19(16)   R13       3
    C19(16)   R14       11
    C19(16)   R15       6
    C19(16)   R16       18
    C19(16)   R17       16
    C19(16)   R18       12
    C19(16)   R19       5
    C20(1)    R1        1
    C21(1)    R2        1
    C22(1)    R3        1
    C23(1)    R4        1
    C24(1)    R5        1
    C25(1)    R6        1
    C26(1)    R7        1
    C27(1)    R8        1
    C28(1)    R9        1
    C29(1)    R10       1
    C30(1)    R11       1
    C31(1)    R12       1
    C32(1)    R13       1
    C33(1)    R14       1
    C34(1)    R15       1
    C35(1)    R16       1
    C36(1)    R17       1
    C37(1)    R18       1
    C38(1)    R19       1
    C39(1)    R20       1
RHS
    RHS1      R0        3.4540104684290731e+02
    RHS1      R1        86
    RHS1      R2        50
    RHS1      R3        99
    RHS1      R4        72
    RHS1      R5        52
    RHS1      R6        71
    RHS1      R7        66
    RHS1      R8        89
    RHS1      R9        85
    RHS1      R10       77
    RHS1      R11       60
    RHS1      R12       99
    RHS1      R13       99
    RHS1      R14       60
    RHS1      R15       78
    RHS1      R16       59
    RHS1      R17       57
    RHS1      R18       91
    RHS1      R19       95
    RHS1      R20       3
BOUNDS
 UP BND1      I0(9)     2
 UP BND1      I1(10)    2
 UP BND1      I2(6)     2
 UP BND1      I3(8)     2
 UP BND1      I4(8)     2
 UP BND1      I5(6)     2
 UP BND1      I6(9)     2
 UP BND1      I7(9)     2
 UP BND1      I8(8)     2
 UP BND1      I9(11)    2
ENDATA
